c User generated cnf file
p cnf 14 28
3 10 -4 0 
9 10 -7 0 
5 7 -12 0 
12 -10 8 0 
1 -8 6 0 
9 -2 9 0 
9 13 -11 0 
8 11 -1 0 
4 -11 14 0 
4 10 -7 0 
2 -1 2 0 
12 12 -8 0 
4 13 -1 0 
14 -7 12 0 
9 -5 3 0 
7 -13 5 0 
14 7 -4 0 
9 13 -12 0 
7 1 -12 0 
12 -2 13 0 
3 -14 14 0 
3 -7 12 0 
7 -14 10 0 
2 -7 1 0 
6 -5 6 0 
6 14 -10 0 
5 -1 6 0 
6 13 -14 0 
